
Log started (V11.0.0) Tue Apr 15 18:41:09 2008

Tried aggregator 1 time.
Reduced MIP has 110 rows, 1001 columns, and 2010 nonzeros.
Presolve time =   -0.00 sec.
Clique table members: 100.
MIP emphasis: balance optimality and feasibility.
MIP search method: dynamic search.
Parallel mode: none, using 1 thread.
Root relaxation solution time =    0.02 sec.

        Nodes                                         Cuts/
   Node  Left     Objective  IInf  Best Integer     Best Node    ItCnt     Gap

*     0+    0                         5523.0000      172.2007      198   96.88%
*     0+    0                          201.0000      172.2007      198   14.33%
      0     0      173.0000    21      201.0000      Fract: 9      208   13.93%
*     0+    0                          185.0000      173.0000      208    6.49%
      0     0      173.0000    25      185.0000     Covers: 1      214    6.49%
      0     0      173.0000    23      185.0000     Covers: 2      216    6.49%
*     0+    0                          179.0000      173.0000      216    3.35%
      0     2      173.0000    23      179.0000      173.0000      216    3.35%
    100    63      173.0902    20      179.0000      173.0000     3817    3.35%
    200   130      174.3807    21      179.0000      173.0000     5291    3.35%
    300   200    infeasible            179.0000      173.0000     6718    3.35%
*   310+  188                          178.0000      173.0000     6808    2.81%
    400   245      176.0000    16      178.0000      173.0000     9129    2.81%
    500   304      175.0000    17      178.0000      174.0000    11461    2.25%
    600   312      176.0000    23      178.0000      174.0000    13514    2.25%
*   693+  257                          177.0000      174.0000    15120    1.69%
    700   257      176.0000    23      177.0000      174.0000    15302    1.69%
*   793+  153                          176.0000      174.0000    17205    1.14%
    800   152      175.0000    31      176.0000      174.0000    17485    1.14%
    900   202      175.0000    32      176.0000      174.0000    21043    1.14%
   1000   251      175.0000    35      176.0000      175.0000    26990    0.57%
Elapsed time =   4.44 sec. (tree size =  0.10 MB, solutions = 7)
   1100   295      175.0000    27      176.0000      175.0000    33441    0.57%
*  1173+    1                          175.0000      175.0000    37285    0.00%

Cover cuts applied:  175
Flow cuts applied:  1
Mixed integer rounding cuts applied:  19
Zero-half cuts applied:  1
Gomory fractional cuts applied:  4

Solution pool: 8 solutions saved.

MIP - Integer optimal solution:  Objective = 1.7500000000e+002
Solution time =    5.59 sec.  Iterations = 37285  Nodes = 1173


Incumbent solution
Variable Name           Solution Value
Cmax                        175.000000
X_1_8                         1.000000
X_2_3                         1.000000
X_3_1                         1.000000
X_4_8                         1.000000
X_5_6                         1.000000
X_6_4                         1.000000
X_7_7                         1.000000
X_8_5                         1.000000
X_9_10                        1.000000
X_10_8                        1.000000
X_11_10                       1.000000
X_12_9                        1.000000
X_13_7                        1.000000
X_14_10                       1.000000
X_15_6                        1.000000
X_16_6                        1.000000
X_17_7                        1.000000
X_18_7                        1.000000
X_19_8                        1.000000
X_20_8                        1.000000
X_21_4                        1.000000
X_22_5                        1.000000
X_23_1                        1.000000
X_24_1                        1.000000
X_25_6                        1.000000
X_26_5                        1.000000
X_27_8                        1.000000
X_28_8                        1.000000
X_29_3                        1.000000
X_30_9                        1.000000
X_31_7                        1.000000
X_32_3                        1.000000
X_33_2                        1.000000
X_34_9                        1.000000
X_35_7                        1.000000
X_36_5                        1.000000
X_37_5                        1.000000
X_38_3                        1.000000
X_39_6                        1.000000
X_40_6                        1.000000
X_41_1                        1.000000
X_42_7                        1.000000
X_43_5                        1.000000
X_44_3                        1.000000
X_45_3                        1.000000
X_46_10                       1.000000
X_47_3                        1.000000
X_48_7                        1.000000
X_49_1                        1.000000
X_50_10                       1.000000
X_51_2                        1.000000
X_52_8                        1.000000
X_53_3                        1.000000
X_54_2                        1.000000
X_55_9                        1.000000
X_56_5                        1.000000
X_57_2                        1.000000
X_58_10                       1.000000
X_59_6                        1.000000
X_60_1                        1.000000
X_61_3                        1.000000
X_62_7                        1.000000
X_63_5                        1.000000
X_64_10                       1.000000
X_65_4                        1.000000
X_66_4                        1.000000
X_67_10                       1.000000
X_68_5                        1.000000
X_69_3                        1.000000
X_70_8                        1.000000
X_71_9                        1.000000
X_72_4                        1.000000
X_73_2                        1.000000
X_74_7                        1.000000
X_75_1                        1.000000
X_76_10                       1.000000
X_77_4                        1.000000
X_78_2                        1.000000
X_79_7                        1.000000
X_80_1                        1.000000
X_81_10                       1.000000
X_82_6                        1.000000
X_83_2                        1.000000
X_84_10                       1.000000
X_85_8                        1.000000
X_86_1                        1.000000
X_87_2                        1.000000
X_88_8                        1.000000
X_89_4                        1.000000
X_90_10                       1.000000
X_91_6                        1.000000
X_92_4                        1.000000
X_93_2                        1.000000
X_94_9                        1.000000
X_95_9                        1.000000
X_96_1                        1.000000
X_97_8                        1.000000
X_98_7                        1.000000
X_99_9                        1.000000
X_100_3                       1.000000
All other variables in the range 1-1001 are 0.
